param n := 120;
param c := 450
param : V : p w :=
   0	  93	  83
   1	  47	  37
   2	 108	  98
   3	  95	  85
   4	  98	  88
   5	 105	  95
   6	  39	  29
   7	  45	  35
   8	 110	 100
   9	  65	  55
  10	  58	  48
  11	  37	  27
  12	  30	  20
  13	  76	  66
  14	  72	  62
  15	  62	  52
  16	  98	  88
  17	  69	  59
  18	 107	  97
  19	 101	  91
  20	  91	  81
  21	  91	  81
  22	  96	  86
  23	  58	  48
  24	  53	  43
  25	  70	  60
  26	  82	  72
  27	  98	  88
  28	 100	  90
  29	  58	  48
  30	  48	  38
  31	  70	  60
  32	  63	  53
  33	  65	  55
  34	 100	  90
  35	  58	  48
  36	  65	  55
  37	  67	  57
  38	  69	  59
  39	  35	  25
  40	  61	  51
  41	  32	  22
  42	  53	  43
  43	  41	  31
  44	  62	  52
  45	  99	  89
  46	 106	  96
  47	  68	  58
  48	  73	  63
  49	  37	  27
  50	  56	  46
  51	  53	  43
  52	  40	  30
  53	  54	  44
  54	  81	  71
  55	  76	  66
  56	  74	  64
  57	  38	  28
  58	  93	  83
  59	  98	  88
  60	  52	  42
  61	 102	  92
  62	 105	  95
  63	  46	  36
  64	  34	  24
  65	  72	  62
  66	  54	  44
  67	  92	  82
  68	  69	  59
  69	  41	  31
  70	 106	  96
  71	  54	  44
  72	  71	  61
  73	  88	  78
  74	  82	  72
  75	  72	  62
  76	  86	  76
  77	  75	  65
  78	  32	  22
  79	  51	  41
  80	  37	  27
  81	  95	  85
  82	  90	  80
  83	  82	  72
  84	 110	 100
  85	  39	  29
  86	  37	  27
  87	  53	  43
  88	  93	  83
  89	  42	  32
  90	  43	  33
  91	  63	  53
  92	 105	  95
  93	 109	  99
  94	  30	  20
  95	  33	  23
  96	  82	  72
  97	  60	  50
  98	  60	  50
  99	  37	  27
 100	  99	  89
 101	  63	  53
 102	  85	  75
 103	  91	  81
 104	  44	  34
 105	  37	  27
 106	  79	  69
 107	  58	  48
 108	  94	  84
 109	  47	  37
 110	  79	  69
 111	  64	  54
 112	  61	  51
 113	  59	  49
 114	  59	  49
 115	  64	  54
 116	 110	 100
 117	  65	  55
 118	  55	  45
 119	  93	  83
;

set E :=
   0	   2
   0	   4
   0	   7
   0	   9
   0	  13
   0	  14
   0	  16
   0	  18
   0	  20
   0	  22
   0	  26
   0	  27
   0	  30
   0	  31
   0	  32
   0	  33
   0	  37
   0	  41
   0	  42
   0	  45
   0	  48
   0	  49
   0	  55
   0	  56
   0	  57
   0	  58
   0	  59
   0	  61
   0	  63
   0	  64
   0	  66
   0	  74
   0	  76
   0	  77
   0	  82
   0	  86
   0	  89
   0	  90
   0	  93
   0	  95
   0	  99
   0	 104
   0	 111
   0	 112
   0	 113
   0	 115
   0	 117
   0	 119
   1	   3
   1	   4
   1	   6
   1	   7
   1	   8
   1	  10
   1	  12
   1	  15
   1	  16
   1	  17
   1	  21
   1	  22
   1	  23
   1	  24
   1	  25
   1	  26
   1	  27
   1	  36
   1	  37
   1	  38
   1	  39
   1	  41
   1	  48
   1	  49
   1	  54
   1	  58
   1	  60
   1	  61
   1	  64
   1	  68
   1	  74
   1	  75
   1	  77
   1	  78
   1	  83
   1	  87
   1	  89
   1	  90
   1	  91
   1	  98
   1	 100
   1	 101
   1	 102
   1	 103
   1	 104
   1	 110
   1	 113
   1	 115
   1	 119
   2	   3
   2	   4
   2	   9
   2	  13
   2	  17
   2	  22
   2	  26
   2	  28
   2	  29
   2	  30
   2	  32
   2	  34
   2	  35
   2	  36
   2	  38
   2	  45
   2	  46
   2	  47
   2	  51
   2	  56
   2	  58
   2	  62
   2	  63
   2	  65
   2	  66
   2	  67
   2	  72
   2	  73
   2	  76
   2	  77
   2	  80
   2	  81
   2	  82
   2	  89
   2	  93
   2	  94
   2	  97
   2	  99
   2	 104
   2	 107
   2	 108
   2	 114
   2	 115
   2	 119
   3	   6
   3	   9
   3	  11
   3	  15
   3	  16
   3	  19
   3	  21
   3	  26
   3	  29
   3	  30
   3	  31
   3	  32
   3	  36
   3	  42
   3	  43
   3	  44
   3	  49
   3	  51
   3	  52
   3	  54
   3	  56
   3	  59
   3	  60
   3	  61
   3	  64
   3	  65
   3	  66
   3	  75
   3	  76
   3	  77
   3	  87
   3	  90
   3	  92
   3	  96
   3	 106
   3	 109
   3	 112
   3	 113
   3	 116
   3	 118
   4	   5
   4	  10
   4	  14
   4	  15
   4	  19
   4	  20
   4	  21
   4	  22
   4	  25
   4	  26
   4	  27
   4	  28
   4	  34
   4	  38
   4	  39
   4	  41
   4	  43
   4	  44
   4	  45
   4	  48
   4	  49
   4	  54
   4	  58
   4	  59
   4	  61
   4	  62
   4	  63
   4	  64
   4	  67
   4	  68
   4	  72
   4	  73
   4	  75
   4	  76
   4	  77
   4	  83
   4	  85
   4	  89
   4	  90
   4	  91
   4	  98
   4	 100
   4	 101
   4	 103
   4	 104
   4	 109
   4	 110
   4	 113
   4	 115
   4	 118
   5	   6
   5	   9
   5	  12
   5	  15
   5	  17
   5	  20
   5	  22
   5	  24
   5	  27
   5	  28
   5	  31
   5	  34
   5	  35
   5	  45
   5	  46
   5	  49
   5	  51
   5	  56
   5	  59
   5	  61
   5	  63
   5	  66
   5	  67
   5	  68
   5	  69
   5	  71
   5	  73
   5	  75
   5	  78
   5	  80
   5	  86
   5	  87
   5	  91
   5	 103
   5	 104
   5	 110
   5	 112
   5	 113
   5	 116
   5	 117
   5	 118
   5	 119
   6	   9
   6	  10
   6	  11
   6	  12
   6	  14
   6	  15
   6	  18
   6	  19
   6	  21
   6	  22
   6	  27
   6	  32
   6	  34
   6	  36
   6	  41
   6	  42
   6	  45
   6	  47
   6	  55
   6	  56
   6	  58
   6	  63
   6	  65
   6	  67
   6	  70
   6	  71
   6	  72
   6	  74
   6	  77
   6	  79
   6	  80
   6	  83
   6	  84
   6	  85
   6	  86
   6	  87
   6	  88
   6	  94
   6	  95
   6	  98
   6	 100
   6	 103
   6	 116
   6	 117
   6	 119
   7	  12
   7	  13
   7	  15
   7	  22
   7	  23
   7	  24
   7	  25
   7	  28
   7	  29
   7	  30
   7	  34
   7	  38
   7	  43
   7	  45
   7	  46
   7	  47
   7	  50
   7	  52
   7	  54
   7	  55
   7	  57
   7	  59
   7	  67
   7	  68
   7	  69
   7	  73
   7	  75
   7	  76
   7	  78
   7	  85
   7	  88
   7	  90
   7	  92
   7	  99
   7	 102
   7	 106
   7	 108
   7	 113
   7	 115
   7	 116
   7	 118
   7	 119
   8	  10
   8	  12
   8	  16
   8	  18
   8	  20
   8	  25
   8	  29
   8	  33
   8	  35
   8	  36
   8	  40
   8	  42
   8	  51
   8	  53
   8	  54
   8	  58
   8	  59
   8	  60
   8	  62
   8	  63
   8	  64
   8	  65
   8	  69
   8	  70
   8	  72
   8	  73
   8	  74
   8	  77
   8	  78
   8	  81
   8	  82
   8	  83
   8	  85
   8	  86
   8	  90
   8	  94
   8	  97
   8	  99
   8	 103
   8	 105
   8	 106
   8	 109
   8	 112
   8	 114
   8	 115
   8	 117
   8	 118
   8	 119
   9	  12
   9	  16
   9	  17
   9	  20
   9	  22
   9	  24
   9	  25
   9	  27
   9	  31
   9	  37
   9	  38
   9	  40
   9	  41
   9	  42
   9	  48
   9	  50
   9	  52
   9	  55
   9	  57
   9	  58
   9	  59
   9	  65
   9	  68
   9	  70
   9	  71
   9	  72
   9	  74
   9	  75
   9	  77
   9	  79
   9	  84
   9	  85
   9	  86
   9	  89
   9	  92
   9	  98
   9	 102
   9	 105
   9	 106
   9	 110
   9	 115
   9	 119
  10	  11
  10	  13
  10	  15
  10	  17
  10	  18
  10	  20
  10	  22
  10	  23
  10	  25
  10	  26
  10	  33
  10	  38
  10	  39
  10	  40
  10	  43
  10	  44
  10	  45
  10	  46
  10	  47
  10	  49
  10	  50
  10	  51
  10	  53
  10	  54
  10	  56
  10	  58
  10	  60
  10	  63
  10	  68
  10	  69
  10	  70
  10	  72
  10	  76
  10	  77
  10	  79
  10	  86
  10	  87
  10	  89
  10	  92
  10	  94
  10	 100
  10	 103
  10	 104
  10	 106
  10	 108
  10	 112
  10	 118
  11	  14
  11	  20
  11	  21
  11	  25
  11	  27
  11	  31
  11	  36
  11	  37
  11	  39
  11	  42
  11	  44
  11	  45
  11	  46
  11	  51
  11	  52
  11	  54
  11	  58
  11	  69
  11	  70
  11	  71
  11	  73
  11	  74
  11	  79
  11	  82
  11	  83
  11	  85
  11	  88
  11	  89
  11	  90
  11	  98
  11	  99
  11	 100
  11	 102
  11	 103
  11	 105
  11	 106
  11	 108
  11	 110
  11	 115
  11	 117
  12	  18
  12	  19
  12	  22
  12	  24
  12	  27
  12	  29
  12	  31
  12	  34
  12	  35
  12	  36
  12	  38
  12	  39
  12	  40
  12	  43
  12	  44
  12	  45
  12	  50
  12	  52
  12	  54
  12	  55
  12	  56
  12	  57
  12	  58
  12	  59
  12	  61
  12	  62
  12	  65
  12	  66
  12	  67
  12	  71
  12	  73
  12	  74
  12	  75
  12	  77
  12	  80
  12	  81
  12	  85
  12	  90
  12	  91
  12	  92
  12	  93
  12	  95
  12	  96
  12	 102
  12	 103
  12	 105
  12	 106
  12	 109
  12	 111
  12	 113
  12	 114
  12	 115
  12	 118
  13	  15
  13	  16
  13	  22
  13	  23
  13	  24
  13	  26
  13	  29
  13	  31
  13	  37
  13	  38
  13	  43
  13	  46
  13	  50
  13	  52
  13	  53
  13	  54
  13	  56
  13	  57
  13	  58
  13	  61
  13	  68
  13	  70
  13	  71
  13	  75
  13	  76
  13	  80
  13	  83
  13	  85
  13	  92
  13	  94
  13	  95
  13	  97
  13	  98
  13	 100
  13	 101
  13	 102
  13	 105
  13	 106
  13	 108
  13	 109
  13	 110
  13	 114
  13	 118
  13	 119
  14	  17
  14	  20
  14	  21
  14	  22
  14	  23
  14	  25
  14	  26
  14	  28
  14	  29
  14	  30
  14	  31
  14	  32
  14	  33
  14	  34
  14	  36
  14	  37
  14	  41
  14	  44
  14	  45
  14	  46
  14	  49
  14	  50
  14	  54
  14	  60
  14	  61
  14	  65
  14	  66
  14	  69
  14	  73
  14	  79
  14	  83
  14	  85
  14	  86
  14	  89
  14	  91
  14	  93
  14	  98
  14	 101
  14	 102
  14	 103
  14	 104
  14	 108
  14	 113
  14	 115
  14	 119
  15	  18
  15	  20
  15	  22
  15	  23
  15	  27
  15	  32
  15	  35
  15	  39
  15	  41
  15	  44
  15	  45
  15	  46
  15	  51
  15	  53
  15	  54
  15	  59
  15	  61
  15	  62
  15	  63
  15	  65
  15	  68
  15	  69
  15	  70
  15	  71
  15	  72
  15	  74
  15	  77
  15	  78
  15	  82
  15	  84
  15	  85
  15	  86
  15	  87
  15	  97
  15	 100
  15	 105
  15	 106
  15	 108
  15	 109
  15	 110
  15	 111
  15	 112
  15	 113
  15	 116
  15	 119
  16	  21
  16	  24
  16	  25
  16	  26
  16	  31
  16	  32
  16	  43
  16	  44
  16	  45
  16	  46
  16	  50
  16	  53
  16	  54
  16	  56
  16	  58
  16	  59
  16	  61
  16	  65
  16	  67
  16	  70
  16	  71
  16	  80
  16	  84
  16	  86
  16	  91
  16	  92
  16	  94
  16	  98
  16	  99
  16	 100
  16	 102
  16	 103
  16	 105
  16	 106
  16	 107
  16	 112
  16	 114
  16	 117
  17	  19
  17	  21
  17	  22
  17	  25
  17	  27
  17	  30
  17	  31
  17	  34
  17	  39
  17	  42
  17	  44
  17	  46
  17	  50
  17	  52
  17	  60
  17	  63
  17	  65
  17	  66
  17	  68
  17	  72
  17	  77
  17	  83
  17	  93
  17	  95
  17	  96
  17	  98
  17	 100
  17	 101
  17	 105
  17	 107
  17	 108
  17	 109
  17	 110
  17	 111
  17	 112
  17	 118
  17	 119
  18	  23
  18	  24
  18	  27
  18	  31
  18	  33
  18	  35
  18	  36
  18	  41
  18	  42
  18	  46
  18	  51
  18	  62
  18	  67
  18	  68
  18	  69
  18	  70
  18	  71
  18	  73
  18	  77
  18	  83
  18	  84
  18	  85
  18	  87
  18	  88
  18	  89
  18	  92
  18	  93
  18	  96
  18	  98
  18	 101
  18	 102
  18	 105
  18	 107
  18	 108
  18	 109
  18	 112
  18	 114
  18	 118
  18	 119
  19	  23
  19	  24
  19	  30
  19	  32
  19	  34
  19	  35
  19	  36
  19	  41
  19	  44
  19	  45
  19	  46
  19	  48
  19	  51
  19	  52
  19	  53
  19	  57
  19	  58
  19	  59
  19	  60
  19	  61
  19	  62
  19	  64
  19	  65
  19	  68
  19	  69
  19	  74
  19	  76
  19	  78
  19	  79
  19	  80
  19	  84
  19	  86
  19	  88
  19	  90
  19	  94
  19	  99
  19	 102
  19	 104
  19	 107
  19	 108
  19	 110
  19	 113
  19	 116
  19	 119
  20	  22
  20	  23
  20	  24
  20	  25
  20	  29
  20	  30
  20	  31
  20	  34
  20	  41
  20	  42
  20	  43
  20	  46
  20	  54
  20	  61
  20	  63
  20	  64
  20	  66
  20	  67
  20	  77
  20	  79
  20	  80
  20	  82
  20	  84
  20	  89
  20	  99
  20	 104
  20	 106
  20	 110
  20	 112
  20	 115
  20	 117
  20	 119
  21	  22
  21	  24
  21	  25
  21	  26
  21	  27
  21	  29
  21	  34
  21	  35
  21	  36
  21	  37
  21	  38
  21	  42
  21	  45
  21	  48
  21	  49
  21	  50
  21	  55
  21	  56
  21	  61
  21	  62
  21	  63
  21	  65
  21	  68
  21	  72
  21	  76
  21	  81
  21	  82
  21	  84
  21	  86
  21	  88
  21	  91
  21	  93
  21	  96
  21	  97
  21	  98
  21	  99
  21	 103
  21	 105
  21	 108
  21	 113
  21	 114
  21	 116
  21	 119
  22	  24
  22	  26
  22	  27
  22	  31
  22	  32
  22	  33
  22	  35
  22	  39
  22	  41
  22	  43
  22	  53
  22	  55
  22	  56
  22	  58
  22	  59
  22	  60
  22	  66
  22	  71
  22	  74
  22	  75
  22	  76
  22	  79
  22	  80
  22	  82
  22	  85
  22	  88
  22	  90
  22	  91
  22	  92
  22	  94
  22	  95
  22	  96
  22	 104
  22	 105
  22	 107
  22	 113
  23	  24
  23	  26
  23	  27
  23	  31
  23	  32
  23	  33
  23	  34
  23	  40
  23	  41
  23	  44
  23	  45
  23	  47
  23	  48
  23	  50
  23	  51
  23	  55
  23	  57
  23	  62
  23	  63
  23	  64
  23	  69
  23	  71
  23	  72
  23	  73
  23	  79
  23	  80
  23	  84
  23	  86
  23	  88
  23	  90
  23	  95
  23	  98
  23	 101
  23	 102
  23	 104
  23	 106
  23	 107
  23	 109
  23	 115
  24	  29
  24	  30
  24	  32
  24	  36
  24	  42
  24	  47
  24	  48
  24	  51
  24	  54
  24	  55
  24	  58
  24	  60
  24	  73
  24	  74
  24	  75
  24	  76
  24	  78
  24	  80
  24	  86
  24	  90
  24	  91
  24	  92
  24	  95
  24	  96
  24	 100
  24	 101
  24	 104
  24	 108
  24	 109
  24	 111
  24	 114
  24	 115
  24	 116
  24	 117
  24	 118
  24	 119
  25	  28
  25	  30
  25	  31
  25	  34
  25	  41
  25	  47
  25	  48
  25	  51
  25	  56
  25	  58
  25	  59
  25	  62
  25	  63
  25	  65
  25	  70
  25	  73
  25	  77
  25	  78
  25	  80
  25	  82
  25	  84
  25	  85
  25	  86
  25	  88
  25	  89
  25	  90
  25	  92
  25	  95
  25	  96
  25	  98
  25	 100
  25	 102
  25	 104
  25	 107
  25	 108
  25	 112
  25	 113
  25	 116
  26	  27
  26	  30
  26	  31
  26	  32
  26	  34
  26	  37
  26	  40
  26	  48
  26	  52
  26	  58
  26	  60
  26	  63
  26	  64
  26	  68
  26	  70
  26	  71
  26	  72
  26	  75
  26	  82
  26	  84
  26	  85
  26	  88
  26	  89
  26	  91
  26	  93
  26	  94
  26	  98
  26	  99
  26	 108
  26	 110
  26	 117
  26	 119
  27	  31
  27	  34
  27	  37
  27	  38
  27	  42
  27	  46
  27	  49
  27	  50
  27	  51
  27	  52
  27	  53
  27	  55
  27	  62
  27	  64
  27	  65
  27	  66
  27	  67
  27	  69
  27	  75
  27	  83
  27	  84
  27	  86
  27	  87
  27	  91
  27	  97
  27	 100
  27	 101
  27	 102
  27	 106
  27	 108
  27	 110
  27	 114
  28	  29
  28	  30
  28	  32
  28	  33
  28	  34
  28	  35
  28	  36
  28	  39
  28	  41
  28	  43
  28	  44
  28	  47
  28	  54
  28	  55
  28	  56
  28	  57
  28	  60
  28	  62
  28	  64
  28	  67
  28	  68
  28	  72
  28	  73
  28	  74
  28	  78
  28	  79
  28	  80
  28	  81
  28	  84
  28	  85
  28	  86
  28	  87
  28	  91
  28	  92
  28	  94
  28	  95
  28	  98
  28	  99
  28	 100
  28	 105
  28	 107
  28	 110
  28	 111
  28	 116
  29	  31
  29	  32
  29	  33
  29	  35
  29	  37
  29	  44
  29	  48
  29	  50
  29	  51
  29	  52
  29	  53
  29	  58
  29	  59
  29	  60
  29	  61
  29	  69
  29	  71
  29	  72
  29	  83
  29	  86
  29	  87
  29	  90
  29	  91
  29	  98
  29	 101
  29	 105
  29	 106
  29	 107
  29	 113
  29	 115
  29	 117
  30	  31
  30	  33
  30	  34
  30	  39
  30	  40
  30	  44
  30	  47
  30	  48
  30	  52
  30	  61
  30	  64
  30	  65
  30	  66
  30	  67
  30	  69
  30	  71
  30	  76
  30	  77
  30	  78
  30	  79
  30	  81
  30	  83
  30	  84
  30	  86
  30	  90
  30	  94
  30	  95
  30	 101
  30	 104
  30	 105
  30	 106
  30	 109
  30	 116
  31	  36
  31	  37
  31	  39
  31	  40
  31	  41
  31	  45
  31	  48
  31	  50
  31	  52
  31	  53
  31	  54
  31	  59
  31	  61
  31	  73
  31	  74
  31	  78
  31	  79
  31	  80
  31	  89
  31	  90
  31	  91
  31	  97
  31	 100
  31	 102
  31	 104
  31	 110
  31	 112
  31	 116
  31	 119
  32	  34
  32	  35
  32	  36
  32	  38
  32	  40
  32	  42
  32	  48
  32	  50
  32	  51
  32	  52
  32	  54
  32	  62
  32	  64
  32	  65
  32	  69
  32	  70
  32	  73
  32	  77
  32	  78
  32	  84
  32	  88
  32	  89
  32	  92
  32	  93
  32	  94
  32	  96
  32	  98
  32	 102
  32	 103
  32	 105
  32	 107
  32	 109
  32	 110
  32	 111
  32	 112
  32	 115
  32	 116
  32	 117
  33	  35
  33	  37
  33	  38
  33	  39
  33	  41
  33	  43
  33	  45
  33	  46
  33	  53
  33	  54
  33	  55
  33	  58
  33	  60
  33	  65
  33	  66
  33	  70
  33	  75
  33	  76
  33	  77
  33	  78
  33	  79
  33	  83
  33	  84
  33	  88
  33	  92
  33	  96
  33	 100
  33	 103
  33	 112
  34	  35
  34	  36
  34	  39
  34	  40
  34	  41
  34	  44
  34	  46
  34	  51
  34	  53
  34	  54
  34	  56
  34	  57
  34	  59
  34	  60
  34	  63
  34	  64
  34	  66
  34	  69
  34	  70
  34	  71
  34	  73
  34	  76
  34	  78
  34	  81
  34	  82
  34	  84
  34	  87
  34	  91
  34	  92
  34	  94
  34	 103
  34	 104
  34	 105
  34	 115
  34	 117
  34	 118
  34	 119
  35	  41
  35	  49
  35	  50
  35	  56
  35	  59
  35	  60
  35	  61
  35	  63
  35	  72
  35	  74
  35	  75
  35	  78
  35	  80
  35	  86
  35	  88
  35	  89
  35	  97
  35	  99
  35	 104
  35	 106
  35	 108
  35	 109
  35	 111
  35	 112
  35	 118
  35	 119
  36	  38
  36	  39
  36	  42
  36	  48
  36	  49
  36	  51
  36	  53
  36	  56
  36	  58
  36	  59
  36	  65
  36	  66
  36	  74
  36	  75
  36	  83
  36	  84
  36	  88
  36	  91
  36	  95
  36	  96
  36	  97
  36	 101
  36	 103
  36	 105
  36	 106
  36	 108
  36	 110
  36	 113
  36	 115
  36	 117
  37	  38
  37	  39
  37	  42
  37	  44
  37	  45
  37	  47
  37	  54
  37	  57
  37	  59
  37	  63
  37	  65
  37	  66
  37	  71
  37	  72
  37	  73
  37	  76
  37	  79
  37	  80
  37	  82
  37	  86
  37	  88
  37	  90
  37	  91
  37	  93
  37	  96
  37	  99
  37	 108
  37	 109
  37	 111
  37	 112
  37	 113
  37	 114
  37	 116
  38	  39
  38	  40
  38	  42
  38	  43
  38	  45
  38	  46
  38	  49
  38	  52
  38	  54
  38	  57
  38	  61
  38	  63
  38	  64
  38	  65
  38	  66
  38	  67
  38	  69
  38	  72
  38	  73
  38	  74
  38	  75
  38	  78
  38	  82
  38	  83
  38	  84
  38	  87
  38	  89
  38	  91
  38	  92
  38	  94
  38	  95
  38	  96
  38	  99
  38	 102
  38	 104
  38	 105
  38	 108
  38	 109
  38	 110
  38	 111
  38	 114
  38	 115
  38	 118
  39	  45
  39	  49
  39	  51
  39	  52
  39	  53
  39	  55
  39	  57
  39	  58
  39	  59
  39	  62
  39	  65
  39	  66
  39	  71
  39	  76
  39	  77
  39	  78
  39	  85
  39	  87
  39	  89
  39	  90
  39	  92
  39	  95
  39	 100
  39	 102
  39	 106
  39	 107
  39	 111
  39	 113
  40	  43
  40	  44
  40	  45
  40	  46
  40	  47
  40	  50
  40	  52
  40	  54
  40	  56
  40	  59
  40	  65
  40	  68
  40	  73
  40	  74
  40	  75
  40	  76
  40	  80
  40	  81
  40	  83
  40	  84
  40	  92
  40	  96
  40	  97
  40	  98
  40	  99
  40	 100
  40	 110
  40	 112
  40	 114
  40	 119
  41	  42
  41	  52
  41	  53
  41	  56
  41	  57
  41	  58
  41	  60
  41	  61
  41	  62
  41	  66
  41	  67
  41	  69
  41	  73
  41	  75
  41	  77
  41	  79
  41	  87
  41	  90
  41	  92
  41	  93
  41	  94
  41	  97
  41	  98
  41	 100
  41	 101
  41	 102
  41	 106
  41	 107
  41	 110
  41	 111
  41	 115
  41	 116
  41	 118
  42	  47
  42	  48
  42	  51
  42	  54
  42	  55
  42	  56
  42	  57
  42	  58
  42	  60
  42	  61
  42	  63
  42	  67
  42	  68
  42	  69
  42	  70
  42	  73
  42	  77
  42	  78
  42	  88
  42	  90
  42	  91
  42	  95
  42	  97
  42	  98
  42	  99
  42	 100
  42	 101
  42	 102
  42	 103
  42	 105
  42	 108
  42	 109
  42	 110
  42	 112
  42	 115
  42	 117
  42	 119
  43	  46
  43	  48
  43	  49
  43	  51
  43	  54
  43	  56
  43	  57
  43	  61
  43	  68
  43	  70
  43	  73
  43	  78
  43	  79
  43	  83
  43	  85
  43	  86
  43	  87
  43	  91
  43	  92
  43	  95
  43	  98
  43	 102
  43	 104
  43	 105
  43	 107
  43	 108
  43	 111
  43	 113
  43	 114
  43	 116
  43	 119
  44	  45
  44	  54
  44	  55
  44	  57
  44	  59
  44	  60
  44	  62
  44	  70
  44	  71
  44	  73
  44	  74
  44	  75
  44	  76
  44	  80
  44	  88
  44	  90
  44	  91
  44	  93
  44	  94
  44	  95
  44	 102
  44	 105
  44	 107
  44	 110
  44	 111
  44	 116
  44	 118
  45	  46
  45	  49
  45	  50
  45	  52
  45	  53
  45	  54
  45	  59
  45	  60
  45	  61
  45	  63
  45	  66
  45	  67
  45	  68
  45	  72
  45	  78
  45	  83
  45	  84
  45	  85
  45	  87
  45	  91
  45	  96
  45	  97
  45	 100
  45	 101
  45	 105
  45	 106
  45	 108
  45	 111
  45	 112
  45	 113
  45	 114
  45	 116
  45	 119
  46	  47
  46	  49
  46	  54
  46	  55
  46	  56
  46	  57
  46	  61
  46	  64
  46	  65
  46	  66
  46	  67
  46	  68
  46	  69
  46	  70
  46	  72
  46	  74
  46	  75
  46	  78
  46	  79
  46	  81
  46	  88
  46	  91
  46	  94
  46	  99
  46	 103
  46	 109
  46	 110
  46	 111
  46	 114
  46	 117
  46	 118
  47	  50
  47	  51
  47	  54
  47	  64
  47	  66
  47	  68
  47	  70
  47	  71
  47	  74
  47	  75
  47	  76
  47	  78
  47	  81
  47	  88
  47	  91
  47	  92
  47	  94
  47	 101
  47	 103
  47	 106
  47	 110
  47	 111
  47	 112
  47	 113
  47	 116
  47	 117
  48	  50
  48	  51
  48	  53
  48	  55
  48	  62
  48	  63
  48	  65
  48	  67
  48	  70
  48	  76
  48	  78
  48	  80
  48	  81
  48	  82
  48	  90
  48	  91
  48	  94
  48	  98
  48	 102
  48	 104
  48	 105
  48	 112
  48	 114
  48	 116
  48	 119
  49	  51
  49	  54
  49	  55
  49	  56
  49	  58
  49	  60
  49	  61
  49	  62
  49	  63
  49	  66
  49	  67
  49	  72
  49	  73
  49	  81
  49	  83
  49	  88
  49	  90
  49	  93
  49	  94
  49	  95
  49	  96
  49	  98
  49	  99
  49	 101
  49	 102
  49	 105
  49	 106
  49	 112
  49	 114
  49	 116
  50	  53
  50	  58
  50	  59
  50	  61
  50	  63
  50	  68
  50	  69
  50	  70
  50	  72
  50	  75
  50	  77
  50	  79
  50	  80
  50	  81
  50	  83
  50	  86
  50	  87
  50	  88
  50	  93
  50	  95
  50	  97
  50	  99
  50	 102
  50	 105
  50	 108
  50	 112
  50	 114
  50	 117
  51	  56
  51	  62
  51	  63
  51	  65
  51	  68
  51	  72
  51	  73
  51	  76
  51	  77
  51	  78
  51	  79
  51	  80
  51	  83
  51	  84
  51	  85
  51	  94
  51	  98
  51	 103
  51	 108
  51	 109
  51	 114
  51	 116
  51	 119
  52	  53
  52	  54
  52	  57
  52	  61
  52	  64
  52	  66
  52	  70
  52	  71
  52	  72
  52	  77
  52	  85
  52	  89
  52	  90
  52	  92
  52	  93
  52	  95
  52	  97
  52	 103
  52	 104
  52	 106
  52	 108
  52	 109
  52	 110
  52	 112
  52	 114
  52	 116
  52	 118
  53	  54
  53	  60
  53	  61
  53	  62
  53	  63
  53	  64
  53	  69
  53	  70
  53	  74
  53	  76
  53	  79
  53	  84
  53	  86
  53	  87
  53	  89
  53	  91
  53	  92
  53	  93
  53	  99
  53	 100
  53	 105
  53	 107
  53	 108
  53	 109
  53	 114
  53	 115
  53	 116
  53	 117
  54	  55
  54	  58
  54	  63
  54	  66
  54	  67
  54	  71
  54	  73
  54	  74
  54	  78
  54	  79
  54	  83
  54	  84
  54	  89
  54	  91
  54	  95
  54	  96
  54	  98
  54	  99
  54	 100
  54	 101
  54	 102
  54	 103
  54	 106
  54	 108
  54	 110
  54	 113
  54	 114
  54	 116
  55	  59
  55	  60
  55	  67
  55	  68
  55	  69
  55	  70
  55	  75
  55	  76
  55	  77
  55	  79
  55	  80
  55	  81
  55	  85
  55	  87
  55	  89
  55	  90
  55	  93
  55	  97
  55	  98
  55	  99
  55	 100
  55	 101
  55	 104
  55	 107
  55	 108
  55	 109
  55	 110
  55	 111
  55	 112
  55	 113
  55	 114
  55	 118
  55	 119
  56	  61
  56	  62
  56	  63
  56	  69
  56	  70
  56	  73
  56	  74
  56	  76
  56	  79
  56	  83
  56	  86
  56	  87
  56	  90
  56	  92
  56	  95
  56	 101
  56	 104
  56	 106
  56	 107
  56	 110
  56	 111
  56	 114
  56	 115
  57	  62
  57	  65
  57	  72
  57	  74
  57	  75
  57	  79
  57	  80
  57	  82
  57	  83
  57	  85
  57	  86
  57	  87
  57	  89
  57	  90
  57	  92
  57	  95
  57	  99
  57	 101
  57	 103
  57	 105
  57	 106
  57	 108
  57	 109
  57	 111
  57	 113
  57	 115
  57	 118
  58	  61
  58	  62
  58	  64
  58	  68
  58	  69
  58	  71
  58	  72
  58	  79
  58	  80
  58	  81
  58	  87
  58	  89
  58	  93
  58	  97
  58	  98
  58	 100
  58	 101
  58	 103
  58	 115
  58	 118
  59	  60
  59	  62
  59	  63
  59	  64
  59	  69
  59	  73
  59	  74
  59	  75
  59	  78
  59	  79
  59	  83
  59	  86
  59	  88
  59	  89
  59	  90
  59	  91
  59	  94
  59	  95
  59	  96
  59	  99
  59	 101
  59	 102
  59	 104
  59	 105
  59	 113
  59	 115
  59	 116
  60	  61
  60	  62
  60	  69
  60	  70
  60	  72
  60	  73
  60	  76
  60	  80
  60	  81
  60	  86
  60	  87
  60	  89
  60	  90
  60	  91
  60	  93
  60	  96
  60	  98
  60	 101
  60	 102
  60	 104
  60	 105
  60	 108
  60	 109
  60	 114
  60	 115
  60	 116
  61	  63
  61	  66
  61	  67
  61	  68
  61	  71
  61	  72
  61	  76
  61	  81
  61	  82
  61	  87
  61	  88
  61	  93
  61	  94
  61	  98
  61	  99
  61	 100
  61	 101
  61	 102
  61	 103
  61	 105
  61	 106
  61	 109
  61	 116
  61	 117
  62	  64
  62	  66
  62	  67
  62	  69
  62	  70
  62	  71
  62	  72
  62	  78
  62	  82
  62	  83
  62	  84
  62	  86
  62	  88
  62	  91
  62	  92
  62	  93
  62	  94
  62	  95
  62	  97
  62	  98
  62	 100
  62	 102
  62	 103
  62	 105
  62	 107
  62	 111
  62	 113
  62	 115
  62	 116
  63	  65
  63	  69
  63	  73
  63	  74
  63	  75
  63	  77
  63	  79
  63	  80
  63	  82
  63	  83
  63	  88
  63	  89
  63	  91
  63	  93
  63	  94
  63	  95
  63	  97
  63	  98
  63	 100
  63	 101
  63	 106
  63	 108
  63	 109
  63	 110
  63	 114
  63	 115
  63	 116
  63	 118
  64	  65
  64	  68
  64	  70
  64	  75
  64	  77
  64	  78
  64	  81
  64	  85
  64	  86
  64	  88
  64	  91
  64	  92
  64	  94
  64	  96
  64	  97
  64	  98
  64	 100
  64	 101
  64	 105
  64	 106
  64	 110
  64	 111
  64	 112
  64	 116
  65	  66
  65	  70
  65	  74
  65	  81
  65	  82
  65	  83
  65	  86
  65	  89
  65	  91
  65	  92
  65	  94
  65	  95
  65	  98
  65	  99
  65	 111
  65	 112
  65	 113
  65	 114
  65	 115
  65	 116
  66	  69
  66	  77
  66	  78
  66	  79
  66	  82
  66	  83
  66	  84
  66	  90
  66	  91
  66	  92
  66	  93
  66	  94
  66	  95
  66	  97
  66	  98
  66	 100
  66	 101
  66	 104
  66	 109
  66	 112
  66	 115
  66	 116
  66	 117
  66	 118
  67	  68
  67	  71
  67	  73
  67	  75
  67	  79
  67	  82
  67	  85
  67	  90
  67	  93
  67	  95
  67	  96
  67	  99
  67	 100
  67	 101
  67	 105
  67	 108
  67	 111
  67	 112
  67	 116
  67	 117
  67	 119
  68	  71
  68	  74
  68	  77
  68	  80
  68	  94
  68	  95
  68	  98
  68	 102
  68	 104
  68	 108
  68	 109
  68	 114
  68	 116
  68	 119
  69	  74
  69	  76
  69	  77
  69	  80
  69	  81
  69	  82
  69	  83
  69	  85
  69	  88
  69	  92
  69	  93
  69	  94
  69	  95
  69	  96
  69	 101
  69	 105
  69	 107
  69	 111
  69	 113
  69	 114
  69	 119
  70	  72
  70	  73
  70	  75
  70	  80
  70	  83
  70	  84
  70	  87
  70	  90
  70	  91
  70	  92
  70	  93
  70	  97
  70	  99
  70	 101
  70	 104
  70	 105
  70	 106
  70	 111
  70	 114
  70	 117
  71	  72
  71	  74
  71	  77
  71	  78
  71	  79
  71	  80
  71	  82
  71	  83
  71	  84
  71	  85
  71	  86
  71	  87
  71	  88
  71	  90
  71	  91
  71	  93
  71	  96
  71	  97
  71	  98
  71	 100
  71	 101
  71	 103
  71	 105
  71	 109
  71	 110
  71	 111
  71	 113
  71	 117
  71	 118
  71	 119
  72	  73
  72	  74
  72	  75
  72	  78
  72	  79
  72	  80
  72	  83
  72	  84
  72	  85
  72	  87
  72	  90
  72	  97
  72	  98
  72	 102
  72	 107
  72	 109
  72	 113
  72	 116
  72	 117
  72	 119
  73	  74
  73	  76
  73	  78
  73	  82
  73	  83
  73	  86
  73	  90
  73	  91
  73	  94
  73	 100
  73	 103
  73	 104
  73	 105
  73	 108
  73	 111
  73	 112
  73	 113
  73	 115
  73	 118
  74	  77
  74	  84
  74	  87
  74	  88
  74	  90
  74	  94
  74	  95
  74	  96
  74	  97
  74	  99
  74	 100
  74	 103
  74	 105
  74	 106
  74	 107
  74	 108
  74	 112
  74	 117
  74	 118
  75	  84
  75	  85
  75	  87
  75	  88
  75	  89
  75	  91
  75	  92
  75	  97
  75	  98
  75	 102
  75	 103
  75	 105
  75	 113
  75	 116
  75	 119
  76	  77
  76	  79
  76	  81
  76	  83
  76	  86
  76	  90
  76	  92
  76	  93
  76	 100
  76	 101
  76	 107
  76	 108
  76	 110
  76	 111
  76	 112
  76	 116
  76	 119
  77	  79
  77	  80
  77	  84
  77	  85
  77	  86
  77	  88
  77	  91
  77	  92
  77	  93
  77	  94
  77	  96
  77	  97
  77	 100
  77	 101
  77	 102
  77	 103
  77	 104
  77	 105
  77	 107
  77	 113
  77	 114
  78	  80
  78	  84
  78	  85
  78	  92
  78	  95
  78	  97
  78	 101
  78	 106
  78	 109
  78	 110
  78	 112
  78	 113
  78	 114
  78	 115
  78	 116
  78	 118
  78	 119
  79	  82
  79	  94
  79	  95
  79	 104
  79	 107
  79	 115
  79	 117
  79	 118
  80	  82
  80	  85
  80	  87
  80	  90
  80	  92
  80	  93
  80	  99
  80	 103
  80	 104
  80	 105
  80	 108
  80	 112
  80	 113
  80	 115
  80	 116
  80	 117
  80	 118
  80	 119
  81	  84
  81	  86
  81	  88
  81	  89
  81	  90
  81	  92
  81	  93
  81	  96
  81	  98
  81	  99
  81	 101
  81	 102
  81	 103
  81	 107
  81	 108
  81	 109
  81	 112
  81	 113
  81	 116
  81	 117
  82	  87
  82	  89
  82	  92
  82	  95
  82	  97
  82	  98
  82	  99
  82	 100
  82	 101
  82	 102
  82	 106
  82	 111
  82	 112
  82	 115
  82	 116
  83	  84
  83	  85
  83	  86
  83	  88
  83	  90
  83	  91
  83	  92
  83	  95
  83	  96
  83	  99
  83	 101
  83	 102
  83	 112
  83	 114
  83	 116
  83	 119
  84	  88
  84	  89
  84	  90
  84	  93
  84	  96
  84	  99
  84	 101
  84	 102
  84	 103
  84	 107
  84	 114
  84	 115
  84	 117
  84	 118
  84	 119
  85	  90
  85	  91
  85	  92
  85	  93
  85	  94
  85	  96
  85	  97
  85	  99
  85	 100
  85	 102
  85	 103
  85	 104
  85	 109
  85	 110
  85	 114
  85	 117
  85	 118
  85	 119
  86	  91
  86	  93
  86	  94
  86	  97
  86	  98
  86	  99
  86	 105
  86	 109
  86	 112
  86	 117
  87	  88
  87	  89
  87	  91
  87	  96
  87	  97
  87	  98
  87	  99
  87	 101
  87	 104
  87	 106
  87	 107
  87	 108
  87	 111
  87	 112
  87	 113
  87	 115
  87	 118
  87	 119
  88	  92
  88	  93
  88	  95
  88	  96
  88	  97
  88	 101
  88	 106
  88	 107
  88	 108
  88	 110
  88	 113
  88	 117
  88	 119
  89	  99
  89	 101
  89	 102
  89	 103
  89	 104
  89	 106
  89	 107
  89	 108
  89	 111
  89	 115
  89	 118
  90	  91
  90	  92
  90	  93
  90	  98
  90	  99
  90	 102
  90	 106
  90	 108
  90	 109
  90	 112
  90	 114
  90	 115
  90	 116
  90	 117
  90	 118
  90	 119
  91	  92
  91	  93
  91	  96
  91	  99
  91	 101
  91	 109
  91	 110
  91	 115
  91	 117
  92	 100
  92	 101
  92	 102
  92	 108
  92	 109
  92	 114
  92	 116
  92	 117
  93	  98
  93	 100
  93	 103
  93	 105
  93	 107
  93	 108
  93	 109
  93	 113
  93	 116
  94	  96
  94	  99
  94	 104
  94	 108
  94	 110
  94	 111
  94	 112
  94	 115
  94	 117
  94	 118
  95	 104
  95	 112
  95	 113
  95	 114
  95	 116
  95	 117
  95	 118
  96	  97
  96	  99
  96	 101
  96	 104
  96	 105
  96	 106
  96	 107
  96	 109
  96	 110
  96	 117
  96	 119
  97	  98
  97	  99
  97	 100
  97	 101
  97	 102
  97	 103
  97	 116
  97	 117
  98	  99
  98	 100
  98	 101
  98	 102
  98	 105
  98	 114
  98	 116
  98	 117
  99	 104
  99	 109
  99	 114
  99	 118
  99	 119
 100	 103
 100	 108
 100	 110
 100	 111
 100	 114
 100	 117
 100	 119
 101	 106
 101	 109
 101	 110
 101	 115
 101	 116
 101	 118
 102	 103
 102	 106
 102	 107
 102	 110
 102	 112
 102	 117
 103	 104
 103	 106
 103	 108
 103	 113
 103	 114
 103	 119
 104	 106
 104	 109
 104	 115
 104	 116
 104	 118
 105	 108
 105	 110
 105	 111
 105	 114
 105	 115
 105	 116
 105	 117
 105	 119
 106	 113
 106	 116
 107	 108
 107	 109
 107	 116
 107	 117
 108	 109
 108	 112
 108	 113
 108	 116
 108	 117
 108	 119
 109	 110
 109	 111
 109	 113
 109	 114
 109	 116
 109	 117
 109	 118
 109	 119
 110	 111
 110	 112
 110	 114
 110	 115
 111	 112
 111	 113
 111	 115
 111	 116
 111	 117
 111	 118
 112	 113
 112	 115
 112	 116
 112	 119
 113	 114
 113	 118
 114	 116
 114	 118
 114	 119
 115	 117
 117	 118
 117	 119
;
